NAME: sim-grid-B-60
TYPE: TSP
COMMENT: Semi-regular Grid
DIMENSION: 60
EDGE_WEIGHT_TYPE: EUC_2D
NODE_COORD_SECTION
1 100 50
2 700 50
3 850 50
4 1000 50
5 1150 50
6 1300 50
7 1450 50
8 100 100
9 250 100
10 400 100
11 550 100
12 700 100
13 850 100
14 1150 100
15 1300 100
16 1450 100
17 300 250
18 450 250
19 650 250
20 800 250
21 1150 250
22 1350 250
23 1500 250
24 100 300
25 300 300
26 450 300
27 650 300
28 1000 300
29 1150 300
30 1500 300
31 50 450
32 200 450
33 400 450
34 550 450
35 750 450
36 900 450
37 1100 450
38 1250 450
39 50 500
40 200 500
41 400 500
42 550 500
43 750 500
44 900 500
45 1100 500
46 1250 500
47 1450 500
48 100 650
49 300 650
50 650 650
51 800 650
52 1000 650
53 1150 650
54 100 700
55 300 700
56 650 700
57 800 700
58 1000 700
59 1150 700
60 1500 700
EOF
